120
1000
200
200
199
199
198
198
197
196
196
196
196
196
194
194
193
193
193
193
193
192
192
191
191
190
190
188
188
186
185
185
184
184
183
183
182
182
181
181
181
180
180
180
179
179
179
179
179
178
178
178
178
178
178
178
176
176
176
176
176
175
175
175
174
174
173
173
173
173
172
171
171
169
169
169
169
169
168
168
167
167
167
166
165
164
164
164
164
164
164
163
163
162
162
162
161
161
161
161
161
159
159
159
158
158
158
157
157
157
156
155
154
153
152
151
151
151
151
150
150
150
